h 1 2 0
15127684839857653 -3 0
h 4 5 0
h -5 -6 0
h 7 8 6 0
h 2 9 0
h -4 10 0
h -11 12 0
h -10 4 0
h -7 -2 0
h -10 -6 0
h -4 -5 0
h 13 -14 0
h -13 -15 -2 0
h -11 14 0
h 6 16 0
h -9 -1 3 0
h 14 10 0
h 15 -17 0
h -14 -10 0
h -12 5 0
h 11 9 0
h -8 17 0
h 13 1 0
h -16 10 0
h 5 8 -7 0
h -17 4 0
h -4 1 0
